
<<< setup


<<< generate

Version identifier: 22.1.1.0 | 2022-11-27 | 9160aff4d
Tried aggregator 1 time.
MIQCP Presolve eliminated 529 rows and 1 columns.
MIQCP Presolve modified 2230 coefficients.
Reduced MIQCP has 5455 rows, 4971 columns, and 55052 nonzeros.
Reduced MIQCP has 240 binaries, 0 generals, 0 SOSs, and 0 indicators.
Reduced MIQCP has 809 quadratic constraints.
Presolve time = 0,19 sec. (192,50 ticks)
Probing fixed 0 vars, tightened 3329 bounds.
Probing time = 0,09 sec. (109,45 ticks)
Clique table members: 1168.
MIP emphasis: balance optimality and feasibility.
MIP search method: dynamic search.
Parallel mode: deterministic, using up to 12 threads.
Root relaxation solution time = 0,09 sec. (139,16 ticks)

        Nodes                                         Cuts/
   Node  Left     Objective  IInf  Best Integer    Best Bound    ItCnt     Gap

      0     0     5198,4367     0                  16503,6693      579         
      0     0     5172,7958   206                     Cone: 1      823         
      0     0     5048,4791   219                     Cone: 2     1086         
      0     0     4984,3355   223                     Cone: 3     1223         
      0     0     4942,2440   219                     Cone: 4     1371         
      0     0     4923,8071   217                     Cone: 5     1481         
      0     0     4910,7233   216                     Cone: 6     1568         
